c
c
c
c
p cnf 10 20
1 0
-1 0
2 -10 7 0
-6 -4 -2 0
10 -3 5 0
7 10 9 0
-3 6 2 0
3 9 10 0
-4 10 -6 0
5 -6 -7 0
-10 3 5 0
7 10 5 0
3 5 -2 0
3 -6 5 0
9 8 3 0
-8 9 3 0
-8 3 5 0
-10 -4 -6 0
5 9 2 0
3 -4 -9 0
%
0
